\ENCODING=ISO-8859-1
\Problem name: 

Minimize
 obj: x1 + x2 + x3 + x4 + x5 + x6 + x7 + x8 + x9 + x10 + x11 + x12 + x13 + x14
      + x15 + x16 + x17 + x18 + x19 + x20 + x21 + x22 + x23 + x24 + 2 x25
      + 2 x26 + 2 x27 + 2 x28 + 2 x29 + 2 x30 + 2 x31 + 2 x32 + 2 x33 + 2 x34
      + 2 x35 + 2 x36 + 2 x37 + 2 x38 + 2 x39 + 2 x40 + 2 x41 + 2 x42 + 2 x43
      + 2 x44 + 2 x45 + 2 x46 + 2 x47 + 2 x48 + 2 x49 + 2 x50 + 3 x51 + 3 x52
      + 3 x53 + 3 x54 + 3 x55 + 3 x56 + 3 x57 + 3 x58 + 3 x59 + 3 x60 + 3 x61
      + 3 x62 + 3 x63 + 3 x64 + 3 x65 + 3 x66 + 3 x67 + 3 x68 + 3 x69 + 3 x70
      + 3 x71 + 4 x72 + 4 x73 + 4 x74 + 4 x75 + 4 x76 + 4 x77 + 4 x78 + 4 x79
      + 4 x80 + 4 x81 + 4 x82 + 4 x83 + 4 x84 + 4 x85 + 5 x86 + 5 x87 + 5 x88
      + 5 x89 + 5 x90 + 5 x91 + 5 x92 + 5 x93 + 6 x94 + 6 x95 + 6 x96 + 6 x97
      + 6 x98 + 6 x99 + 6 x100 + 6 x101 + 6 x102 + 6 x103 + 6 x104 + 6 x105
      + 6 x106 + 6 x107 + 6 x108 + 6 x109 + 6 x110 + 6 x111 + 7 x112 + 7 x113
      + 7 x114 + 7 x115 + 7 x116 + 7 x117 + 7 x118 + 7 x119 + 7 x120 + 7 x121
      + 7 x122 + 7 x123 + 7 x124 + 7 x125 + 8 x126 + 8 x127 + 8 x128 + 8 x129
      + 8 x130 + 8 x131 + 8 x132 + 8 x133 + 8 x134 + 8 x135 + 9 x136 + 9 x137
      + 9 x138 + 9 x139 + 9 x140 + 9 x141 + 9 x142 + 9 x143 + 9 x144 + 9 x145
      + 10 x146 + 10 x147 + 10 x148 + 10 x149 + 10 x150 + 11 x151 + 11 x152
      + 11 x153 + 11 x154 + 11 x155 + 11 x156 + 11 x157 + 11 x158 + 11 x159
      + 11 x160 + 12 x161 + 12 x162 + 12 x163 + 12 x164 + 13 x165 + 13 x166
      + 13 x167 + 13 x168 + 13 x169 + 13 x170 + 13 x171 + 14 x172 + 15 x173
      + 15 x174 + 16 x175 + 17 x176 + 18 x177 + 21 x178 + 22 x179 + 23 x180
      + 25 x181 + 26 x182 + 28 x183
Subject To
 c1:   x17 + x37 + x53 + x141 + x146 + x157 + x179 >= 1
 c2:   x1 + x26 + x55 + x78 + x108 >= 1
 c3:   x85 + x93 + x112 + x173 + x175 >= 1
 c4:   x40 + x64 + x95 + x101 + x112 + x127 + x158 >= 1
 c5:   x26 + x74 + x103 + x116 + x117 + x161 >= 1
 c6:   x3 + x16 + x34 >= 1
 c7:   x28 + x54 + x82 >= 1
 c8:   x7 + x22 + x88 + x91 >= 1
 c9:   x97 + x107 + x137 >= 1
 c10:  x82 + x112 + x158 + x165 >= 1
 c11:  x67 + x112 + x165 >= 1
 c12:  x25 + x79 + x141 + x168 >= 1
 c13:  x17 + x28 + x87 + x182 >= 1
 c14:  x3 + x43 + x62 + x169 >= 1
 c15:  x29 + x36 + x95 + x113 + x130 + x131 + x147 >= 1
 c16:  x15 + x42 + x142 + x153 + x167 >= 1
 c17:  x1 + x51 + x60 + x178 >= 1
 c18:  x11 + x25 + x89 + x101 >= 1
 c19:  x30 + x106 + x109 + x113 >= 1
 c20:  x2 + x62 + x126 >= 1
 c21:  x110 + x120 + x152 + x164 + x183 >= 1
 c22:  x45 + x116 + x126 + x135 + x140 >= 1
 c23:  x94 + x102 + x113 + x116 + x122 + x177 >= 1
 c24:  x47 + x151 >= 1
 c25:  x114 + x126 + x152 + x174 >= 1
 c26:  x129 + x175 + x177 + x179 + x182 >= 1
 c27:  x39 + x40 + x75 + x86 + x98 + x100 + x118 >= 1
 c28:  x73 + x82 + x96 + x119 + x127 + x167 + x176 + x182 >= 1
 c29:  x34 + x37 >= 1
 c30:  x74 + x106 + x135 + x158 + x181 >= 1
 c31:  x22 + x41 + x108 + x117 + x140 >= 1
 c32:  x124 + x170 + x178 + x179 >= 1
 c33:  x97 + x118 + x133 + x150 + x161 + x167 + x181 >= 1
 c34:  x3 >= 1
 c35:  x35 + x61 + x90 + x100 + x137 + x181 + x182 >= 1
 c36:  x36 + x117 + x180 >= 1
 c37:  x25 + x27 + x137 + x180 >= 1
 c38:  x57 + x72 + x83 + x91 + x135 >= 1
 c39:  x65 + x73 + x149 >= 1
 c40:  x19 + x28 + x128 + x136 >= 1
 c41:  x4 + x83 + x100 >= 1
 c42:  x7 + x40 + x136 + x174 >= 1
 c43:  x59 + x77 + x123 + x133 >= 1
 c44:  x74 + x101 + x152 >= 1
 c45:  x2 + x31 + x61 + x150 >= 1
 c46:  x27 + x105 + x127 >= 1
 c47:  x52 + x95 + x154 + x158 + x172 >= 1
 c48:  x57 + x71 + x75 + x111 >= 1
 c49:  x2 + x94 + x98 >= 1
 c50:  x108 >= 1
 c51:  x78 + x120 + x163 + x177 >= 1
 c52:  x121 + x128 + x155 >= 1
 c53:  x77 + x116 + x118 + x119 + x127 + x146 + x154 >= 1
 c54:  x8 + x29 + x94 >= 1
 c55:  x4 + x63 + x134 >= 1
 c56:  x53 + x56 + x69 + x73 + x90 + x177 >= 1
 c57:  x113 + x165 + x178 >= 1
 c58:  x30 + x32 + x58 + x80 >= 1
 c59:  x26 + x151 >= 1
 c60:  x134 + x142 + x162 + x170 >= 1
 c61:  x2 + x113 + x115 + x148 >= 1
 c62:  x98 + x128 + x130 + x174 + x182 + x183 >= 1
 c63:  x4 + x72 + x76 + x103 + x139 >= 1
 c64:  x4 + x6 + x33 + x51 + x87 + x115 + x118 + x140 >= 1
 c65:  x50 + x63 + x75 + x87 >= 1
 c66:  x27 + x64 >= 1
 c67:  x13 + x94 + x146 >= 1
 c68:  x39 + x76 + x78 + x115 + x156 + x169 >= 1
 c69:  x2 + x126 >= 1
 c70:  x61 + x122 + x149 + x165 >= 1
 c71:  x8 + x46 + x47 >= 1
 c72:  x111 + x114 + x144 + x162 >= 1
 c73:  x8 + x44 + x110 + x158 + x172 + x176 >= 1
 c74:  x84 + x94 + x117 + x177 + x179 + x180 + x183 >= 1
 c75:  x141 + x164 + x172 + x176 >= 1
 c76:  x68 + x98 + x147 >= 1
 c77:  x32 + x66 + x73 + x79 + x123 >= 1
 c78:  x13 + x90 + x103 + x148 >= 1
 c79:  x5 + x34 + x72 + x84 >= 1
 c80:  x1 + x14 + x56 + x94 + x165 + x174 >= 1
 c81:  x95 + x125 + x148 + x159 + x183 >= 1
 c82:  x2 + x75 + x99 + x130 + x138 + x159 + x161 >= 1
 c83:  x11 + x29 + x31 + x49 + x127 + x169 >= 1
 c84:  x6 + x13 + x152 >= 1
 c85:  x76 + x89 + x179 >= 1
 c86:  x126 + x156 + x160 + x181 >= 1
 c87:  x25 + x80 + x88 + x104 + x116 + x128 >= 1
 c88:  x42 + x106 + x114 + x126 + x130 + x146 + x167 + x180 >= 1
 c89:  x62 + x68 + x86 + x125 + x132 + x138 + x182 >= 1
 c90:  x59 + x181 >= 1
 c91:  x31 + x87 + x114 + x129 + x145 >= 1
 c92:  x60 + x86 + x136 + x153 + x160 + x168 >= 1
 c93:  x6 + x26 + x30 + x73 + x151 + x170 + x181 >= 1
 c94:  x58 + x107 + x118 + x171 >= 1
 c95:  x55 + x136 + x163 + x175 >= 1
 c96:  x26 + x74 + x88 + x180 >= 1
 c97:  x28 + x167 >= 1
 c98:  x89 + x175 >= 1
 c99:  x1 + x95 + x99 + x155 >= 1
 c100: x54 + x86 + x131 >= 1
 c101: x55 + x83 + x173 >= 1
 c102: x2 + x86 >= 1
 c103: x69 + x96 + x164 + x183 >= 1
 c104: x132 + x162 >= 1
 c105: x33 + x43 + x52 + x90 + x124 >= 1
 c106: x1 + x20 + x94 >= 1
 c107: x39 + x51 + x96 + x101 + x120 + x129 + x143 + x153 + x160 >= 1
 c108: x10 + x16 + x72 + x79 + x176 >= 1
 c109: x38 + x131 >= 1
 c110: x52 + x63 + x96 + x171 >= 1
 c111: x28 + x40 + x115 + x147 + x183 >= 1
 c112: x9 >= 1
 c113: x41 + x65 + x175 >= 1
 c114: x11 + x26 + x101 + x145 >= 1
 c115: x37 >= 1
 c116: x3 + x8 + x25 + x30 + x96 + x104 + x128 + x171 >= 1
 c117: x44 + x97 >= 1
 c118: x5 + x21 + x51 + x166 + x169 >= 1
 c119: x49 + x77 + x105 + x151 + x156 + x166 + x183 >= 1
 c120: x25 + x44 + x55 + x116 + x122 >= 1
 c121: x12 + x92 + x112 + x123 + x157 >= 1
 c122: x7 + x28 + x76 + x79 + x112 + x126 + x138 >= 1
 c123: x66 + x137 + x147 >= 1
 c124: x6 + x113 + x165 >= 1
 c125: x27 + x76 + x136 + x157 + x162 >= 1
 c126: x1 + x3 + x14 + x55 + x87 + x130 + x153 >= 1
 c127: x56 + x102 + x138 + x167 >= 1
 c128: x89 + x102 + x114 + x149 + x157 >= 1
 c129: x37 + x54 + x144 + x153 >= 1
 c130: x7 + x78 + x159 >= 1
 c131: x95 + x144 + x163 >= 1
 c132: x31 + x77 + x100 + x104 + x119 + x142 >= 1
 c133: x86 + x132 + x154 >= 1
 c134: x32 + x172 + x179 >= 1
 c135: x27 + x59 + x65 + x138 >= 1
 c136: x5 + x54 + x68 + x155 >= 1
 c137: x74 + x123 + x150 + x159 + x166 >= 1
 c138: x9 + x73 + x163 >= 1
 c139: x12 + x53 + x99 + x121 + x181 >= 1
 c140: x92 + x143 >= 1
 c141: x54 + x93 + x99 + x157 + x165 >= 1
 c142: x63 + x73 + x114 + x153 >= 1
 c143: x2 + x30 + x35 + x60 + x161 >= 1
 c144: x23 + x115 >= 1
 c145: x81 + x91 + x97 + x109 + x139 + x155 + x168 >= 1
 c146: x62 + x80 + x146 + x151 + x155 + x179 >= 1
 c147: x66 + x105 + x154 + x168 >= 1
 c148: x58 + x92 >= 1
 c149: x23 + x111 + x112 + x180 >= 1
 c150: x43 + x131 >= 1
 c151: x38 + x146 >= 1
 c152: x9 + x98 + x113 >= 1
 c153: x35 + x112 + x120 + x152 >= 1
 c154: x69 + x70 + x78 + x119 + x131 + x133 + x173 >= 1
 c155: x33 + x39 + x51 + x112 >= 1
 c156: x2 + x46 + x57 + x122 + x152 >= 1
 c157: x52 + x61 + x100 + x177 >= 1
 c158: x29 + x33 + x74 + x109 + x154 >= 1
 c159: x34 + x136 + x151 >= 1
 c160: x29 + x124 + x144 >= 1
 c161: x10 >= 1
 c162: x1 + x46 + x119 + x126 + x127 + x134 + x168 >= 1
 c163: x139 + x143 + x169 + x173 >= 1
 c164: x25 + x72 + x81 + x103 + x117 >= 1
 c165: x18 + x53 + x139 >= 1
 c166: x53 + x148 >= 1
 c167: x36 + x112 + x127 + x137 + x156 + x179 >= 1
 c168: x26 + x31 + x105 + x141 >= 1
 c169: x48 + x76 + x106 + x128 + x129 + x137 + x156 + x168 >= 1
 c170: x32 + x36 + x48 + x99 >= 1
 c171: x27 + x57 >= 1
 c172: x67 >= 1
 c173: x138 + x140 + x143 + x149 + x166 + x175 + x176 >= 1
 c174: x12 + x38 + x93 + x129 + x153 + x162 >= 1
 c175: x52 + x107 + x137 + x166 >= 1
 c176: x5 + x87 + x174 >= 1
 c177: x42 + x90 + x114 + x126 >= 1
 c178: x50 + x52 + x132 + x133 + x146 + x150 + x154 + x182 >= 1
 c179: x1 + x15 >= 1
 c180: x41 + x71 + x75 >= 1
 c181: x18 + x27 + x29 + x89 + x175 >= 1
 c182: x45 + x70 + x129 + x173 >= 1
 c183: x60 + x72 + x75 + x84 + x104 + x156 >= 1
 c184: x59 + x147 + x161 >= 1
 c185: x45 + x64 + x139 + x151 >= 1
 c186: x15 + x51 + x104 + x136 + x182 >= 1
 c187: x18 + x20 + x102 + x113 + x151 + x157 + x161 >= 1
 c188: x14 + x74 + x81 + x115 + x155 + x170 >= 1
 c189: x136 + x145 + x151 + x171 + x178 + x180 >= 1
 c190: x10 + x97 + x161 >= 1
 c191: x24 + x35 + x67 + x88 + x120 + x166 >= 1
 c192: x9 + x121 + x124 >= 1
 c193: x1 + x16 + x126 >= 1
 c194: x38 + x56 + x86 >= 1
 c195: x17 + x96 + x121 + x180 + x181 >= 1
 c196: x1 + x19 + x97 + x110 + x142 + x152 + x177 >= 1
 c197: x58 + x72 + x80 + x107 >= 1
 c198: x77 + x81 >= 1
 c199: x21 + x88 >= 1
 c200: x102 + x103 + x180 >= 1
Bounds
 0 <= x1 <= 1
 0 <= x2 <= 1
 0 <= x3 <= 1
 0 <= x4 <= 1
 0 <= x5 <= 1
 0 <= x6 <= 1
 0 <= x7 <= 1
 0 <= x8 <= 1
 0 <= x9 <= 1
 0 <= x10 <= 1
 0 <= x11 <= 1
 0 <= x12 <= 1
 0 <= x13 <= 1
 0 <= x14 <= 1
 0 <= x15 <= 1
 0 <= x16 <= 1
 0 <= x17 <= 1
 0 <= x18 <= 1
 0 <= x19 <= 1
 0 <= x20 <= 1
 0 <= x21 <= 1
 0 <= x22 <= 1
 0 <= x23 <= 1
 0 <= x24 <= 1
 0 <= x25 <= 1
 0 <= x26 <= 1
 0 <= x27 <= 1
 0 <= x28 <= 1
 0 <= x29 <= 1
 0 <= x30 <= 1
 0 <= x31 <= 1
 0 <= x32 <= 1
 0 <= x33 <= 1
 0 <= x34 <= 1
 0 <= x35 <= 1
 0 <= x36 <= 1
 0 <= x37 <= 1
 0 <= x38 <= 1
 0 <= x39 <= 1
 0 <= x40 <= 1
 0 <= x41 <= 1
 0 <= x42 <= 1
 0 <= x43 <= 1
 0 <= x44 <= 1
 0 <= x45 <= 1
 0 <= x46 <= 1
 0 <= x47 <= 1
 0 <= x48 <= 1
 0 <= x49 <= 1
 0 <= x50 <= 1
 0 <= x51 <= 1
 0 <= x52 <= 1
 0 <= x53 <= 1
 0 <= x54 <= 1
 0 <= x55 <= 1
 0 <= x56 <= 1
 0 <= x57 <= 1
 0 <= x58 <= 1
 0 <= x59 <= 1
 0 <= x60 <= 1
 0 <= x61 <= 1
 0 <= x62 <= 1
 0 <= x63 <= 1
 0 <= x64 <= 1
 0 <= x65 <= 1
 0 <= x66 <= 1
 0 <= x67 <= 1
 0 <= x68 <= 1
 0 <= x69 <= 1
 0 <= x70 <= 1
 0 <= x71 <= 1
 0 <= x72 <= 1
 0 <= x73 <= 1
 0 <= x74 <= 1
 0 <= x75 <= 1
 0 <= x76 <= 1
 0 <= x77 <= 1
 0 <= x78 <= 1
 0 <= x79 <= 1
 0 <= x80 <= 1
 0 <= x81 <= 1
 0 <= x82 <= 1
 0 <= x83 <= 1
 0 <= x84 <= 1
 0 <= x85 <= 1
 0 <= x86 <= 1
 0 <= x87 <= 1
 0 <= x88 <= 1
 0 <= x89 <= 1
 0 <= x90 <= 1
 0 <= x91 <= 1
 0 <= x92 <= 1
 0 <= x93 <= 1
 0 <= x94 <= 1
 0 <= x95 <= 1
 0 <= x96 <= 1
 0 <= x97 <= 1
 0 <= x98 <= 1
 0 <= x99 <= 1
 0 <= x100 <= 1
 0 <= x101 <= 1
 0 <= x102 <= 1
 0 <= x103 <= 1
 0 <= x104 <= 1
 0 <= x105 <= 1
 0 <= x106 <= 1
 0 <= x107 <= 1
 0 <= x108 <= 1
 0 <= x109 <= 1
 0 <= x110 <= 1
 0 <= x111 <= 1
 0 <= x112 <= 1
 0 <= x113 <= 1
 0 <= x114 <= 1
 0 <= x115 <= 1
 0 <= x116 <= 1
 0 <= x117 <= 1
 0 <= x118 <= 1
 0 <= x119 <= 1
 0 <= x120 <= 1
 0 <= x121 <= 1
 0 <= x122 <= 1
 0 <= x123 <= 1
 0 <= x124 <= 1
 0 <= x125 <= 1
 0 <= x126 <= 1
 0 <= x127 <= 1
 0 <= x128 <= 1
 0 <= x129 <= 1
 0 <= x130 <= 1
 0 <= x131 <= 1
 0 <= x132 <= 1
 0 <= x133 <= 1
 0 <= x134 <= 1
 0 <= x135 <= 1
 0 <= x136 <= 1
 0 <= x137 <= 1
 0 <= x138 <= 1
 0 <= x139 <= 1
 0 <= x140 <= 1
 0 <= x141 <= 1
 0 <= x142 <= 1
 0 <= x143 <= 1
 0 <= x144 <= 1
 0 <= x145 <= 1
 0 <= x146 <= 1
 0 <= x147 <= 1
 0 <= x148 <= 1
 0 <= x149 <= 1
 0 <= x150 <= 1
 0 <= x151 <= 1
 0 <= x152 <= 1
 0 <= x153 <= 1
 0 <= x154 <= 1
 0 <= x155 <= 1
 0 <= x156 <= 1
 0 <= x157 <= 1
 0 <= x158 <= 1
 0 <= x159 <= 1
 0 <= x160 <= 1
 0 <= x161 <= 1
 0 <= x162 <= 1
 0 <= x163 <= 1
 0 <= x164 <= 1
 0 <= x165 <= 1
 0 <= x166 <= 1
 0 <= x167 <= 1
 0 <= x168 <= 1
 0 <= x169 <= 1
 0 <= x170 <= 1
 0 <= x171 <= 1
 0 <= x172 <= 1
 0 <= x173 <= 1
 0 <= x174 <= 1
 0 <= x175 <= 1
 0 <= x176 <= 1
 0 <= x177 <= 1
 0 <= x178 <= 1
 0 <= x179 <= 1
 0 <= x180 <= 1
 0 <= x181 <= 1
 0 <= x182 <= 1
 0 <= x183 <= 1
Binaries
 x1  x2  x3  x4  x5  x6  x7  x8  x9  x10  x11  x12  x13  x14  x15  x16  x17 
 x18  x19  x20  x21  x22  x23  x24  x25  x26  x27  x28  x29  x30  x31  x32 
 x33  x34  x35  x36  x37  x38  x39  x40  x41  x42  x43  x44  x45  x46  x47 
 x48  x49  x50  x51  x52  x53  x54  x55  x56  x57  x58  x59  x60  x61  x62 
 x63  x64  x65  x66  x67  x68  x69  x70  x71  x72  x73  x74  x75  x76  x77 
 x78  x79  x80  x81  x82  x83  x84  x85  x86  x87  x88  x89  x90  x91  x92 
 x93  x94  x95  x96  x97  x98  x99  x100  x101  x102  x103  x104  x105  x106 
 x107  x108  x109  x110  x111  x112  x113  x114  x115  x116  x117  x118  x119 
 x120  x121  x122  x123  x124  x125  x126  x127  x128  x129  x130  x131  x132 
 x133  x134  x135  x136  x137  x138  x139  x140  x141  x142  x143  x144  x145 
 x146  x147  x148  x149  x150  x151  x152  x153  x154  x155  x156  x157  x158 
 x159  x160  x161  x162  x163  x164  x165  x166  x167  x168  x169  x170  x171 
 x172  x173  x174  x175  x176  x177  x178  x179  x180  x181  x182  x183 
End
